Route #1: 1 42 21 54 55 18 19 2 20 14
Route #2: 1 53 24 56 32 46 12 8
Route #3: 1 59 33 41 9 66 34 16 61 5 30 40 15
Route #4: 1 58 65 45 47 64 26 49 38
Route #5: 1 7 3 11 27 60 31
Route #6: 1 62 17 63 48 51 29
Route #7: 1 52 35 44 23 57 36 39
Route #8: 1 28 43 6 4 22 37
Route #9: 1 50 13 25 10
cost 1472
